p cnf 42 121
a 19 12 0
e 1 2 3 4 5 6 7 8 9 10 11 13 14 15 16 17 18 20 21 22 23 24 25 26 27 28 29 30 31 32 33 34 35 36 37 38 39 40 41 42 0
3 1 0
3 2 0
-1 -2 -3 0
5 -3 0
5 -4 0
3 4 -5 0
2 -6 -7 0
-2 6 -7 0
2 6 7 0
-2 -6 7 0
-8 -2 0
-8 7 0
2 -7 8 0
11 -10 0
11 10 0
-9 11 -12 0
9 -11 -12 0
-9 -11 12 0
9 11 12 0
-13 8 0
-13 -12 0
-8 12 13 0
-14 5 0
-14 13 0
-5 -13 14 0
17 16 0
17 -4 0
-16 4 -17 0
-15 17 -18 0
15 -17 -18 0
-15 -17 18 0
15 17 18 0
10 18 -19 0
-10 -18 -19 0
10 -18 19 0
-10 18 19 0
14 19 -20 0
-14 -19 -20 0
14 -19 20 0
-14 19 20 0
21 3 0
21 -17 0
-3 17 -21 0
23 21 0
23 22 0
-21 -22 -23 0
-23 -22 -24 0
23 22 -24 0
-23 22 24 0
23 -22 24 0
25 -20 0
25 -24 0
20 24 -25 0
-26 16 0
-26 -17 0
-16 17 26 0
28 11 0
28 27 0
-11 -27 -28 0
-9 -3 -29 0
9 3 -29 0
-9 3 29 0
9 -3 29 0
-30 28 0
-30 29 0
-28 -29 30 0
-15 -2 -31 0
15 2 -31 0
-15 2 31 0
15 -2 31 0
10 18 -32 0
-10 -18 -32 0
10 -18 32 0
-10 18 32 0
-31 -32 -33 0
31 32 -33 0
-31 32 33 0
31 -32 33 0
30 33 -34 0
-30 -33 -34 0
30 -33 34 0
-30 33 34 0
-21 -3 -35 0
21 3 -35 0
-21 3 35 0
21 -3 35 0
-15 -11 -36 0
15 11 -36 0
-15 11 36 0
15 -11 36 0
37 6 0
37 2 0
-6 -2 -37 0
-38 -36 0
-38 -37 0
36 37 38 0
39 35 0
39 38 0
-35 -38 -39 0
-34 -39 -40 0
34 39 -40 0
-34 39 40 0
34 -39 40 0
-41 -26 0
-41 -40 0
26 40 41 0
42 25 0
42 -41 0
-25 41 -42 0
-25 -21 39 24 10 -38 -40 30 0
35 -26 42 -30 1 0
39 24 16 -21 -23 0
17 -10 28 -27 7 -16 -2 0
-11 -38 39 3 15 -6 0
-20 -14 42 0
-12 30 33 -27 10 35 0
2 21 33 -38 0
6 12 -40 -14 5 23 0
29 -26 9 30 -40 -8 -10 0
-29 -9 25 -13 -12 18 0
42 0
